26 27
22
3 3 20 17
3 4 12 17
3 5 20 9
3 6 12 21
3 7 3 0
3 8 9 17
3 9 20 0
3 10 0 0
3 11 6 16
3 12 23 15
3 14 13 0
3 15 23 0
3 16 6 0
3 17 0 10
3 19 3 8
4 3 19 14
4 4 9 13
4 5 9 0
4 7 19 20
4 8 9 5
4 11 15 16
4 14 16 0
